328 361 756 850 862 1299 1315 2004 2154 2314 2401 2599 2711 2755 2768 2809 2898 2930 3030 3514 3698 3719 3779 3879 4386 4861 5006 5029 5056 5259 5418 6666 6706 7347 7743 8020 8289 8402 8465 8489 8554 8725 8928 9050 9817 

328 756 850 862 1299 1315 2106 2154 2401 2599 2711 2755 2768 2809 2898 2918 3030 3514 3698 3719 3779 3879 4386 4861 5006 5029 5056 5259 5418 6666 6706 7347 7743 8020 8289 8402 8465 8489 8554 8725 8928 9050 9250 9274 9817 

328 361 756 850 862 1299 1315 2004 2005 2154 2314 2401 2599 2711 2755 2768 2809 2930 3030 3514 3698 3719 3779 3879 4386 4979 5006 5029 5056 5259 5418 5947 6666 6706 7347 7743 8020 8289 8402 8465 8489 8554 8928 9050 9817 

328 361 453 756 850 862 1299 1315 1525 2004 2005 2154 2401 2599 2711 2755 2768 2809 2930 2972 3030 3514 3698 3719 3779 3879 4386 4979 5006 5029 5056 5418 5947 6666 6706 7347 7743 8020 8289 8402 8489 8554 8928 9050 9817 

10 113 280 493 1087 1252 1985 2052 2074 2130 2233 2730 2930 2943 3029 3297 3952 4221 4388 4493 4820 4920 5317 5451 5462 5564 5609 5896 5960 6087 6171 6701 7128 7667 7741 7957 8018 8487 8780 9035 9136 9489 9526 9684 9798 

328 361 453 756 850 862 1299 1315 2004 2005 2154 2314 2401 2599 2711 2755 2768 2809 2930 2972 3030 3514 3698 3719 3779 3879 4386 4861 5006 5029 5056 5259 5418 6666 6706 7347 7743 8020 8289 8402 8489 8554 8928 9050 9817 

328 361 453 756 850 862 1299 1315 2004 2005 2154 2401 2599 2711 2755 2768 2809 2930 2972 3030 3514 3698 3719 3779 3879 4386 4746 4861 5006 5029 5056 5418 5947 6666 6706 7347 7743 8020 8289 8402 8489 8554 8928 9050 9817 

328 361 453 756 850 862 1299 1315 2004 2005 2154 2314 2401 2599 2711 2755 2768 2809 2898 2930 2972 3030 3514 3698 3719 3779 3879 4386 4861 5006 5029 5056 5418 6666 6706 7347 7743 8020 8289 8402 8489 8554 8928 9050 9817 

328 361 453 756 850 862 1299 1315 2004 2005 2154 2314 2401 2599 2711 2755 2768 2809 2898 2930 2972 3030 3514 3698 3779 3879 4386 4861 5006 5029 5056 5259 5418 6666 6706 7347 7743 8020 8289 8402 8489 8554 8928 9050 9817 

328 361 453 756 850 862 1299 1315 1525 2004 2005 2154 2401 2599 2711 2755 2768 2809 2930 2972 3030 3514 3698 3719 3779 3879 4746 4861 5006 5029 5056 5418 5947 6666 6706 7347 7743 8020 8289 8402 8489 8554 8928 9050 9817 

328 361 453 756 850 862 1299 1315 1525 2004 2005 2154 2401 2599 2711 2755 2768 2809 2930 2972 3030 3514 3698 3719 3779 3879 4386 4746 4861 5006 5029 5056 5418 6666 6706 7347 7743 8020 8289 8402 8489 8554 8928 9050 9817 

328 453 756 850 862 1299 1315 1525 2005 2154 2314 2401 2599 2711 2768 2809 2930 2972 3030 3514 3698 3719 3779 3879 4386 5006 5029 5056 5418 5703 5947 6666 6706 7347 7743 8020 8289 8402 8463 8489 8491 8554 8928 9050 9817 

328 361 756 850 862 1299 1315 2004 2005 2154 2314 2401 2599 2711 2755 2809 2930 2972 3030 3514 3698 3719 3779 3879 4386 4861 4979 5006 5029 5056 5259 5418 6666 6706 7347 7743 8020 8289 8402 8489 8554 8725 8928 9050 9817 

328 361 453 756 850 862 1299 1315 1525 2004 2005 2154 2401 2599 2711 2755 2809 2930 2972 3030 3514 3698 3719 3779 3879 4386 4746 4861 5006 5029 5056 5418 5947 6666 6706 7347 7743 8020 8289 8402 8489 8554 8928 9050 9817 

328 453 756 850 862 1299 1315 2005 2154 2314 2401 2599 2711 2768 2809 2898 2930 3030 3514 3698 3779 3879 4386 4861 5029 5056 5233 5259 5418 5703 6015 6462 6666 6706 7347 7743 8020 8289 8463 8489 8491 8554 8928 9050 9817 

328 453 756 850 862 1299 1315 1525 2005 2154 2401 2599 2711 2768 2809 2930 2972 3030 3514 3698 3719 3779 3879 4386 4861 5006 5029 5056 5418 5703 6666 6706 7347 7743 8020 8289 8402 8463 8489 8491 8554 8725 8928 9050 9817 

328 453 756 850 862 1299 1315 1525 2005 2154 2401 2599 2711 2809 2930 2972 3030 3514 3698 3719 3779 3879 4386 4861 5006 5029 5056 5418 5703 5947 6666 6706 7347 7743 8020 8289 8402 8463 8489 8491 8554 8725 8928 9050 9817 

141 328 453 756 850 862 1299 1315 1525 2005 2154 2401 2599 2711 2809 2930 2972 3030 3514 3698 3719 3779 3879 4386 4861 5056 5233 5418 5703 5947 6666 7347 7743 8020 8212 8289 8402 8463 8489 8491 8554 8725 8928 9050 9817 

141 328 453 756 850 862 1299 1315 1525 2005 2154 2401 2599 2711 2809 2930 2972 3030 3514 3698 3719 3779 3879 4386 4861 5006 5056 5418 5703 5947 6666 7347 7743 8020 8212 8289 8402 8463 8489 8491 8554 8725 8928 9050 9817 

141 328 453 756 850 862 1299 1315 1525 2005 2154 2401 2599 2711 2809 2930 2972 3030 3514 3698 3719 3779 3879 4386 4861 5006 5056 5233 5418 5947 6666 7347 7743 8020 8212 8289 8402 8463 8489 8491 8554 8725 8928 9050 9817 

141 328 453 756 850 862 1299 1315 1525 2005 2154 2401 2599 2711 2809 2930 2972 3030 3514 3698 3719 3779 3879 4386 4861 5006 5056 5233 5418 5703 5947 6666 7347 7743 8020 8212 8289 8402 8489 8491 8554 8725 8928 9050 9817 

141 328 453 756 850 862 1299 1315 1525 2005 2154 2401 2599 2711 2809 2930 2972 3030 3514 3698 3719 3779 4386 4861 5006 5056 5233 5418 5703 5947 6666 7347 7743 8020 8212 8289 8402 8463 8489 8491 8554 8725 8928 9050 9817 

